120
150
43
60
47
55
46
60
45
55
52
49
45
52
55
43
60
60
47
50
60
58
53
43
47
56
49
60
53
51
52
51
42
60
44
47
43
46
46
60
44
41
56
51
43
49
58
55
43
52
58
46
54
51
54
47
51
53
53
47
50
49
46
46
45
43
43
51
56
58
43
55
43
52
51
46
53
53
42
55
60
41
55
50
49
49
58
52
56
50
48
55
47
45
44
40
60
44
46
56
42
52
47
56
60
43
55
49
47
47
50
40
60
55
50
46
56
49
54
47
49
45
